NAME = AISearchfile180,
TOURSIZE = 180,
LENGTH = 759180,
42,7,51,166,40,8,159,12,117,15,16,19,75,43,131,164,20,136,22,140,5,23,47,174,27,30,173,48,34,120,44,50,94,165,18,56,24,57,58,14,63,109,64,26,31,67,68,156,110,70,77,80,81,83,36,62,84,86,82,87,175,97,91,95,41,98,66,52,157,149,85,179,35,39,101,104,107,125,128,130,135,28,144,150,146,115,148,73,72,59,167,171,55,176,178,161,118,129,147,9,105,163,113,6,151,61,139,142,69,152,145,119,76,100,32,93,126,49,90,74,132,53,78,102,133,3,112,122,25,11,54,141,121,4,168,153,177,154,124,158,29,65,134,99,1,106,45,162,169,88,170,108,116,137,71,38,114,172,143,127,79,103,17,180,96,10,13,37,89,160,60,92,2,33,21,138,123,155,46,111